; solver scope 0
(declare-const tmp (_ BitVec 8))
(declare-const tmp_0 (_ BitVec 8))
(declare-const tmp_1 (_ BitVec 8))
(assert (let ((tmp_2 ((_ extract 0 0) tmp)))
        (let ((tmp_3 ((_ extract 0 0) tmp_0)))
        (let ((tmp_4 ((_ extract 0 0) tmp_1)))
        (let ((tmp_5 (bvand tmp_4 tmp_3)))
        (let ((tmp_6 (bvxor tmp_5 #b1)))
        (let ((tmp_7 (bvxor tmp_3 #b1)))
        (let ((tmp_8 (bvxor tmp_4 #b1)))
        (let ((tmp_9 (bvand tmp_8 tmp_7)))
        (let ((tmp_10 (bvxor tmp_9 #b1)))
        (let ((tmp_11 (bvand tmp_10 tmp_6)))
        (let ((tmp_12 (bvand tmp_11 tmp_2)))
        (let ((tmp_13 (bvxor tmp_12 #b1)))
        (let ((tmp_14 (bvxor tmp_2 #b1)))
        (let ((tmp_15 (bvxor tmp_11 #b1)))
        (let ((tmp_16 (bvand tmp_15 tmp_14)))
        (let ((tmp_17 (bvxor tmp_16 #b1)))
        (let ((tmp_18 (bvand tmp_17 tmp_13)))
        (let ((tmp_19 ((_ extract 1 1) tmp)))
        (let ((tmp_20 ((_ extract 1 1) tmp_0)))
        (let ((tmp_21 ((_ extract 1 1) tmp_1)))
        (let ((tmp_22 (bvand tmp_21 tmp_20)))
        (let ((tmp_23 (bvxor tmp_22 #b1)))
        (let ((tmp_24 (bvxor tmp_20 #b1)))
        (let ((tmp_25 (bvxor tmp_21 #b1)))
        (let ((tmp_26 (bvand tmp_25 tmp_24)))
        (let ((tmp_27 (bvxor tmp_26 #b1)))
        (let ((tmp_28 (bvand tmp_27 tmp_23)))
        (let ((tmp_29 (bvand tmp_28 tmp_19)))
        (let ((tmp_30 (bvxor tmp_29 #b1)))
        (let ((tmp_31 (bvxor tmp_19 #b1)))
        (let ((tmp_32 (bvxor tmp_28 #b1)))
        (let ((tmp_33 (bvand tmp_32 tmp_31)))
        (let ((tmp_34 (bvxor tmp_33 #b1)))
        (let ((tmp_35 (bvand tmp_34 tmp_30)))
        (let ((tmp_36 (bvand tmp_6 tmp_13)))
        (let ((tmp_37 (bvxor tmp_36 #b1)))
        (let ((tmp_38 (bvand tmp_37 tmp_35)))
        (let ((tmp_39 (bvxor tmp_38 #b1)))
        (let ((tmp_40 (bvxor tmp_35 #b1)))
        (let ((tmp_41 (bvand tmp_36 tmp_40)))
        (let ((tmp_42 (bvxor tmp_41 #b1)))
        (let ((tmp_43 (bvand tmp_42 tmp_39)))
        (let ((tmp_44 ((_ extract 2 2) tmp)))
        (let ((tmp_45 ((_ extract 2 2) tmp_0)))
        (let ((tmp_46 ((_ extract 2 2) tmp_1)))
        (let ((tmp_47 (bvand tmp_46 tmp_45)))
        (let ((tmp_48 (bvxor tmp_47 #b1)))
        (let ((tmp_49 (bvxor tmp_45 #b1)))
        (let ((tmp_50 (bvxor tmp_46 #b1)))
        (let ((tmp_51 (bvand tmp_50 tmp_49)))
        (let ((tmp_52 (bvxor tmp_51 #b1)))
        (let ((tmp_53 (bvand tmp_52 tmp_48)))
        (let ((tmp_54 (bvand tmp_53 tmp_44)))
        (let ((tmp_55 (bvxor tmp_54 #b1)))
        (let ((tmp_56 (bvxor tmp_44 #b1)))
        (let ((tmp_57 (bvxor tmp_53 #b1)))
        (let ((tmp_58 (bvand tmp_57 tmp_56)))
        (let ((tmp_59 (bvxor tmp_58 #b1)))
        (let ((tmp_60 (bvand tmp_59 tmp_55)))
        (let ((tmp_61 (bvand tmp_23 tmp_30)))
        (let ((tmp_62 (bvxor tmp_61 #b1)))
        (let ((tmp_63 (bvand tmp_62 tmp_60)))
        (let ((tmp_64 (bvxor tmp_63 #b1)))
        (let ((tmp_65 (bvxor tmp_60 #b1)))
        (let ((tmp_66 (bvand tmp_61 tmp_65)))
        (let ((tmp_67 (bvxor tmp_66 #b1)))
        (let ((tmp_68 (bvand tmp_67 tmp_64)))
        (let ((tmp_69 (bvxor tmp_68 #b1)))
        (let ((tmp_70 (bvand tmp_39 tmp_69)))
        (let ((tmp_71 (bvxor tmp_70 #b1)))
        (let ((tmp_72 (bvand tmp_38 tmp_68)))
        (let ((tmp_73 (bvxor tmp_72 #b1)))
        (let ((tmp_74 (bvand tmp_73 tmp_71)))
        (let ((tmp_75 (bvand tmp_64 tmp_73)))
        (let ((tmp_76 (bvxor tmp_75 #b1)))
        (let ((tmp_77 ((_ extract 3 3) tmp)))
        (let ((tmp_78 ((_ extract 3 3) tmp_0)))
        (let ((tmp_79 ((_ extract 3 3) tmp_1)))
        (let ((tmp_80 (bvand tmp_79 tmp_78)))
        (let ((tmp_81 (bvxor tmp_80 #b1)))
        (let ((tmp_82 (bvxor tmp_78 #b1)))
        (let ((tmp_83 (bvxor tmp_79 #b1)))
        (let ((tmp_84 (bvand tmp_83 tmp_82)))
        (let ((tmp_85 (bvxor tmp_84 #b1)))
        (let ((tmp_86 (bvand tmp_85 tmp_81)))
        (let ((tmp_87 (bvand tmp_86 tmp_77)))
        (let ((tmp_88 (bvxor tmp_87 #b1)))
        (let ((tmp_89 (bvxor tmp_77 #b1)))
        (let ((tmp_90 (bvxor tmp_86 #b1)))
        (let ((tmp_91 (bvand tmp_90 tmp_89)))
        (let ((tmp_92 (bvxor tmp_91 #b1)))
        (let ((tmp_93 (bvand tmp_92 tmp_88)))
        (let ((tmp_94 (bvand tmp_48 tmp_55)))
        (let ((tmp_95 (bvxor tmp_94 #b1)))
        (let ((tmp_96 (bvand tmp_95 tmp_93)))
        (let ((tmp_97 (bvxor tmp_96 #b1)))
        (let ((tmp_98 (bvxor tmp_93 #b1)))
        (let ((tmp_99 (bvand tmp_94 tmp_98)))
        (let ((tmp_100 (bvxor tmp_99 #b1)))
        (let ((tmp_101 (bvand tmp_100 tmp_97)))
        (let ((tmp_102 (bvand tmp_101 tmp_76)))
        (let ((tmp_103 (bvxor tmp_102 #b1)))
        (let ((tmp_104 (bvxor tmp_101 #b1)))
        (let ((tmp_105 (bvand tmp_104 tmp_75)))
        (let ((tmp_106 (bvxor tmp_105 #b1)))
        (let ((tmp_107 (bvand tmp_106 tmp_103)))
        (let ((tmp_108 (bvand tmp_63 tmp_101)))
        (let ((tmp_109 (bvxor tmp_108 #b1)))
        (let ((tmp_110 (bvand tmp_97 tmp_109)))
        (let ((tmp_111 (bvand tmp_101 tmp_72)))
        (let ((tmp_112 (bvxor tmp_111 #b1)))
        (let ((tmp_113 (bvand tmp_112 tmp_110)))
        (let ((tmp_114 ((_ extract 4 4) tmp)))
        (let ((tmp_115 ((_ extract 4 4) tmp_0)))
        (let ((tmp_116 ((_ extract 4 4) tmp_1)))
        (let ((tmp_117 (bvand tmp_116 tmp_115)))
        (let ((tmp_118 (bvxor tmp_117 #b1)))
        (let ((tmp_119 (bvxor tmp_115 #b1)))
        (let ((tmp_120 (bvxor tmp_116 #b1)))
        (let ((tmp_121 (bvand tmp_120 tmp_119)))
        (let ((tmp_122 (bvxor tmp_121 #b1)))
        (let ((tmp_123 (bvand tmp_122 tmp_118)))
        (let ((tmp_124 (bvand tmp_123 tmp_114)))
        (let ((tmp_125 (bvxor tmp_124 #b1)))
        (let ((tmp_126 (bvxor tmp_114 #b1)))
        (let ((tmp_127 (bvxor tmp_123 #b1)))
        (let ((tmp_128 (bvand tmp_127 tmp_126)))
        (let ((tmp_129 (bvxor tmp_128 #b1)))
        (let ((tmp_130 (bvand tmp_129 tmp_125)))
        (let ((tmp_131 (bvand tmp_81 tmp_88)))
        (let ((tmp_132 (bvxor tmp_131 #b1)))
        (let ((tmp_133 (bvand tmp_132 tmp_130)))
        (let ((tmp_134 (bvxor tmp_133 #b1)))
        (let ((tmp_135 (bvxor tmp_130 #b1)))
        (let ((tmp_136 (bvand tmp_131 tmp_135)))
        (let ((tmp_137 (bvxor tmp_136 #b1)))
        (let ((tmp_138 (bvand tmp_137 tmp_134)))
        (let ((tmp_139 (bvxor tmp_138 #b1)))
        (let ((tmp_140 (bvand tmp_139 tmp_113)))
        (let ((tmp_141 (bvxor tmp_140 #b1)))
        (let ((tmp_142 (bvxor tmp_113 #b1)))
        (let ((tmp_143 (bvand tmp_138 tmp_142)))
        (let ((tmp_144 (bvxor tmp_143 #b1)))
        (let ((tmp_145 (bvand tmp_144 tmp_141)))
        (let ((tmp_146 (bvand tmp_134 tmp_144)))
        (let ((tmp_147 (bvxor tmp_146 #b1)))
        (let ((tmp_148 ((_ extract 5 5) tmp)))
        (let ((tmp_149 ((_ extract 5 5) tmp_0)))
        (let ((tmp_150 ((_ extract 5 5) tmp_1)))
        (let ((tmp_151 (bvand tmp_150 tmp_149)))
        (let ((tmp_152 (bvxor tmp_151 #b1)))
        (let ((tmp_153 (bvxor tmp_149 #b1)))
        (let ((tmp_154 (bvxor tmp_150 #b1)))
        (let ((tmp_155 (bvand tmp_154 tmp_153)))
        (let ((tmp_156 (bvxor tmp_155 #b1)))
        (let ((tmp_157 (bvand tmp_156 tmp_152)))
        (let ((tmp_158 (bvand tmp_157 tmp_148)))
        (let ((tmp_159 (bvxor tmp_158 #b1)))
        (let ((tmp_160 (bvxor tmp_148 #b1)))
        (let ((tmp_161 (bvxor tmp_157 #b1)))
        (let ((tmp_162 (bvand tmp_161 tmp_160)))
        (let ((tmp_163 (bvxor tmp_162 #b1)))
        (let ((tmp_164 (bvand tmp_163 tmp_159)))
        (let ((tmp_165 (bvand tmp_118 tmp_125)))
        (let ((tmp_166 (bvxor tmp_165 #b1)))
        (let ((tmp_167 (bvand tmp_166 tmp_164)))
        (let ((tmp_168 (bvxor tmp_167 #b1)))
        (let ((tmp_169 (bvxor tmp_164 #b1)))
        (let ((tmp_170 (bvand tmp_165 tmp_169)))
        (let ((tmp_171 (bvxor tmp_170 #b1)))
        (let ((tmp_172 (bvand tmp_171 tmp_168)))
        (let ((tmp_173 (bvand tmp_172 tmp_147)))
        (let ((tmp_174 (bvxor tmp_173 #b1)))
        (let ((tmp_175 (bvxor tmp_172 #b1)))
        (let ((tmp_176 (bvand tmp_175 tmp_146)))
        (let ((tmp_177 (bvxor tmp_176 #b1)))
        (let ((tmp_178 (bvand tmp_177 tmp_174)))
        (let ((tmp_179 (bvand tmp_138 tmp_172)))
        (let ((tmp_180 (bvand tmp_179 tmp_142)))
        (let ((tmp_181 (bvxor tmp_180 #b1)))
        (let ((tmp_182 (bvand tmp_133 tmp_172)))
        (let ((tmp_183 (bvxor tmp_182 #b1)))
        (let ((tmp_184 (bvand tmp_168 tmp_183)))
        (let ((tmp_185 (bvand tmp_184 tmp_181)))
        (let ((tmp_186 (bvxor tmp_185 #b1)))
        (let ((tmp_187 ((_ extract 6 6) tmp)))
        (let ((tmp_188 ((_ extract 6 6) tmp_0)))
        (let ((tmp_189 ((_ extract 6 6) tmp_1)))
        (let ((tmp_190 (bvand tmp_189 tmp_188)))
        (let ((tmp_191 (bvxor tmp_190 #b1)))
        (let ((tmp_192 (bvxor tmp_188 #b1)))
        (let ((tmp_193 (bvxor tmp_189 #b1)))
        (let ((tmp_194 (bvand tmp_193 tmp_192)))
        (let ((tmp_195 (bvxor tmp_194 #b1)))
        (let ((tmp_196 (bvand tmp_195 tmp_191)))
        (let ((tmp_197 (bvand tmp_196 tmp_187)))
        (let ((tmp_198 (bvxor tmp_197 #b1)))
        (let ((tmp_199 (bvxor tmp_187 #b1)))
        (let ((tmp_200 (bvxor tmp_196 #b1)))
        (let ((tmp_201 (bvand tmp_200 tmp_199)))
        (let ((tmp_202 (bvxor tmp_201 #b1)))
        (let ((tmp_203 (bvand tmp_202 tmp_198)))
        (let ((tmp_204 (bvand tmp_152 tmp_159)))
        (let ((tmp_205 (bvxor tmp_204 #b1)))
        (let ((tmp_206 (bvand tmp_205 tmp_203)))
        (let ((tmp_207 (bvxor tmp_206 #b1)))
        (let ((tmp_208 (bvxor tmp_203 #b1)))
        (let ((tmp_209 (bvand tmp_204 tmp_208)))
        (let ((tmp_210 (bvxor tmp_209 #b1)))
        (let ((tmp_211 (bvand tmp_210 tmp_207)))
        (let ((tmp_212 (bvand tmp_211 tmp_186)))
        (let ((tmp_213 (bvxor tmp_212 #b1)))
        (let ((tmp_214 (bvxor tmp_211 #b1)))
        (let ((tmp_215 (bvand tmp_214 tmp_185)))
        (let ((tmp_216 (bvxor tmp_215 #b1)))
        (let ((tmp_217 (bvand tmp_216 tmp_213)))
        (let ((tmp_218 (bvxor tmp_184 #b1)))
        (let ((tmp_219 (bvand tmp_211 tmp_218)))
        (let ((tmp_220 (bvxor tmp_219 #b1)))
        (let ((tmp_221 (bvand tmp_207 tmp_220)))
        (let ((tmp_222 (bvand tmp_211 tmp_179)))
        (let ((tmp_223 (bvand tmp_142 tmp_222)))
        (let ((tmp_224 (bvxor tmp_223 #b1)))
        (let ((tmp_225 (bvand tmp_224 tmp_221)))
        (let ((tmp_226 (bvxor tmp_225 #b1)))
        (let ((tmp_227 ((_ extract 7 7) tmp)))
        (let ((tmp_228 ((_ extract 7 7) tmp_0)))
        (let ((tmp_229 ((_ extract 7 7) tmp_1)))
        (let ((tmp_230 (bvand tmp_229 tmp_228)))
        (let ((tmp_231 (bvxor tmp_230 #b1)))
        (let ((tmp_232 (bvxor tmp_228 #b1)))
        (let ((tmp_233 (bvxor tmp_229 #b1)))
        (let ((tmp_234 (bvand tmp_233 tmp_232)))
        (let ((tmp_235 (bvxor tmp_234 #b1)))
        (let ((tmp_236 (bvand tmp_235 tmp_231)))
        (let ((tmp_237 (bvand tmp_236 tmp_227)))
        (let ((tmp_238 (bvxor tmp_237 #b1)))
        (let ((tmp_239 (bvxor tmp_227 #b1)))
        (let ((tmp_240 (bvxor tmp_236 #b1)))
        (let ((tmp_241 (bvand tmp_240 tmp_239)))
        (let ((tmp_242 (bvxor tmp_241 #b1)))
        (let ((tmp_243 (bvand tmp_242 tmp_238)))
        (let ((tmp_244 (bvand tmp_191 tmp_198)))
        (let ((tmp_245 (bvxor tmp_244 #b1)))
        (let ((tmp_246 (bvand tmp_245 tmp_243)))
        (let ((tmp_247 (bvxor tmp_246 #b1)))
        (let ((tmp_248 (bvxor tmp_243 #b1)))
        (let ((tmp_249 (bvand tmp_244 tmp_248)))
        (let ((tmp_250 (bvxor tmp_249 #b1)))
        (let ((tmp_251 (bvand tmp_250 tmp_247)))
        (let ((tmp_252 (bvand tmp_251 tmp_226)))
        (let ((tmp_253 (bvxor tmp_252 #b1)))
        (let ((tmp_254 (bvxor tmp_251 #b1)))
        (let ((tmp_255 (bvand tmp_254 tmp_225)))
        (let ((tmp_256 (bvxor tmp_255 #b1)))
        (let ((tmp_257 (bvand tmp_256 tmp_253)))
        (let ((tmp_258 (bvand tmp_206 tmp_251)))
        (let ((tmp_259 (bvxor tmp_258 #b1)))
        (let ((tmp_260 (bvand tmp_247 tmp_259)))
        (let ((tmp_261 (bvand tmp_211 tmp_251)))
        (let ((tmp_262 (bvand tmp_218 tmp_261)))
        (let ((tmp_263 (bvxor tmp_262 #b1)))
        (let ((tmp_264 (bvand tmp_263 tmp_260)))
        (let ((tmp_265 (bvand tmp_179 tmp_261)))
        (let ((tmp_266 (bvand tmp_142 tmp_265)))
        (let ((tmp_267 (bvxor tmp_266 #b1)))
        (let ((tmp_268 (bvand tmp_267 tmp_264)))
        (let ((tmp_269 (bvxor tmp_268 #b1)))
        (let ((tmp_270 (bvand tmp_231 tmp_238)))
        (let ((tmp_271 (bvxor tmp_270 #b1)))
        (let ((tmp_272 (bvand tmp_271 tmp_269)))
        (let ((tmp_273 (bvxor tmp_272 #b1)))
        (let ((tmp_274 (bvand tmp_270 tmp_268)))
        (let ((tmp_275 (bvxor tmp_274 #b1)))
        (let ((tmp_276 (bvand tmp_275 tmp_273)))
        (let ((tmp_277 (concat tmp_276 tmp_257)))
        (let ((tmp_278 (concat tmp_277 tmp_217)))
        (let ((tmp_279 (concat tmp_278 tmp_178)))
        (let ((tmp_280 (concat tmp_279 tmp_145)))
        (let ((tmp_281 (concat tmp_280 tmp_107)))
        (let ((tmp_282 (concat tmp_281 tmp_74)))
        (let ((tmp_283 (concat tmp_282 tmp_43)))
        (let ((tmp_284 (concat tmp_283 tmp_18)))
        (let ((tmp_285 (concat #b0 tmp_1)))
        (let ((tmp_286 (concat #b0 tmp_0)))
        (let ((tmp_287 (concat #b0 tmp)))
        (let ((tmp_288 (bvadd tmp_287 tmp_286)))
        (let ((tmp_289 (bvadd tmp_288 tmp_285)))
        (let ((tmp_290 (distinct tmp_289 tmp_284)))
        tmp_290))))))))))))))))))))))))))))))))))))))))))))))))))))))))))))))))))))))))))))))))))))))))))))))))))))))))))))))))))))))))))))))))))))))))))))))))))))))))))))))))))))))))))))))))))))))))))))))))))))))))))))))))))))))))))))))))))))))))))))))))))))))))))))))))))))))))))))))))))))))))))))))))))
(check-sat)
